
Gurobi 6.5.2 (win64) logging started 07/23/16 03:01:26


Gurobi 6.5.2 (win64) logging started 07/23/16 03:01:26

Optimize a model with 19156 rows, 1369 columns and 41960 nonzeros
Coefficient statistics:
  Matrix range    [4e-06, 1e+03]
  Objective range [1e+00, 1e+00]
  Bounds range    [1e+00, 1e+00]
  RHS range       [1e+00, 1e+03]
Found heuristic solution: objective 365.137
Presolve removed 19132 rows and 1344 columns
Presolve time: 0.01s
Presolved: 24 rows, 25 columns, 73 nonzeros
Found heuristic solution: objective 231.5960227
Variable types: 25 continuous, 0 integer (0 binary)

Root relaxation: objective 1.950969e+02, 17 iterations, 0.00 seconds

    Nodes    |    Current Node    |     Objective Bounds      |     Work
 Expl Unexpl |  Obj  Depth IntInf | Incumbent    BestBd   Gap | It/Node Time

*    0     0               0     195.0969320  195.09693  0.00%     -    0s

Explored 0 nodes (17 simplex iterations) in 0.01 seconds
Thread count was 8 (of 8 available processors)

Optimal solution found (tolerance 1.00e-04)
Best objective 1.950969320112e+02, best bound 1.950969320112e+02, gap 0.0%

Wrote requested result file 'H2\instance18\\Results18EC_Sol2.lp'

